45424.22
60 59 56 57 54 55 58 9 10 12 13 11 14 15 18 17 16 8 19 20 7 22 21 24 23 26 29 28 25 6 27 30 5 32 31 34 33 36 39 38 35 4 37 40 3 42 43 41 44 46 49 48 45 2 47 50 51 53 52 1 103 106 0 104 105 102 99 98 96 101 100 97 94 91 95 92 93 90 86 87 84 89 88 85 83 82 79 80 81 78 74 75 72 77 76 73 71 70 67 68 69 66 65 64 61 63 62